K = 3;
V = 25;
edge_weight = [|0, -1, 41, 35, -1, -1, -1, -1, -1, 45, -1, -1, -1, -1, 19, 48, -1, -1, 13, -1, -1, -1, -1, -1, -1|
-1, 0, -1, -1, -1, -1, -1, 87, -1, 35, 10, -1, -1, -1, -1, -1, -1, -1, -1, -1, -1, -1, -1, 81, -1|
-1, -1, 0, -1, -1, -1, -1, -1, -1, -1, -1, -1, -1, -1, 86, -1, -1, -1, -1, 39, -1, -1, -1, -1, -1|
-1, -1, -1, 0, 58, -1, -1, -1, -1, -1, -1, -1, -1, -1, 56, -1, 95, -1, 34, 21, -1, -1, -1, -1, -1|
-1, -1, -1, 74, 0, -1, 64, 35, -1, -1, -1, -1, -1, 46, -1, -1, -1, -1, -1, -1, -1, -1, -1, -1, -1|
88, -1, -1, -1, -1, 0, -1, -1, -1, 1, 90, -1, 18, -1, -1, -1, -1, -1, 74, -1, -1, -1, -1, -1, -1|
-1, -1, -1, -1, -1, -1, 0, -1, 41, -1, 54, -1, -1, -1, 90, 37, -1, -1, -1, -1, -1, -1, -1, -1, -1|
-1, -1, -1, -1, -1, 20, -1, 0, -1, -1, -1, -1, -1, 81, -1, -1, 4, 57, 99, -1, -1, -1, -1, -1, -1|
-1, 31, -1, -1, -1, -1, -1, -1, 0, -1, -1, -1, -1, -1, -1, -1, -1, 85, -1, -1, -1, 55, -1, -1, -1|
-1, 24, -1, -1, -1, 100, -1, -1, -1, 0, -1, -1, -1, -1, -1, -1, -1, -1, -1, -1, -1, -1, -1, -1, -1|
58, -1, -1, -1, -1, -1, 52, -1, -1, -1, 0, -1, -1, -1, -1, -1, -1, -1, -1, -1, 55, -1, -1, -1, -1|
-1, -1, -1, -1, -1, -1, -1, -1, -1, -1, -1, 0, -1, -1, -1, -1, -1, -1, -1, -1, -1, 100, -1, -1, -1|
-1, -1, -1, -1, 16, -1, 53, -1, -1, -1, 39, -1, 0, -1, -1, 80, 50, -1, -1, -1, 61, 90, 21, -1, -1|
-1, -1, -1, -1, -1, -1, -1, -1, -1, 58, -1, -1, 64, 0, -1, -1, -1, 23, -1, -1, -1, 97, 76, -1, 30|
-1, -1, -1, -1, -1, -1, -1, -1, -1, -1, -1, -1, -1, -1, 0, 22, -1, -1, -1, -1, 64, -1, -1, -1, -1|
-1, 7, -1, -1, -1, -1, -1, 55, 28, -1, -1, -1, -1, 81, -1, 0, -1, -1, -1, -1, -1, -1, -1, 11, -1|
-1, -1, -1, -1, -1, -1, -1, 91, -1, -1, 51, -1, 4, -1, -1, -1, 0, -1, -1, -1, -1, -1, -1, -1, -1|
-1, -1, -1, -1, -1, -1, -1, -1, -1, -1, -1, 28, -1, -1, -1, -1, 15, 0, -1, 81, -1, -1, -1, -1, -1|
-1, -1, -1, -1, -1, -1, -1, -1, -1, -1, -1, -1, -1, 9, -1, -1, 34, 11, 0, 76, -1, -1, -1, 26, -1|
-1, -1, -1, -1, -1, -1, -1, -1, -1, -1, 36, -1, -1, -1, -1, -1, -1, -1, 53, 0, -1, -1, -1, -1, -1|
100, -1, -1, 89, -1, -1, -1, -1, -1, -1, -1, -1, -1, -1, -1, 90, -1, -1, -1, -1, 0, -1, 73, -1, -1|
-1, -1, -1, -1, -1, -1, 86, -1, -1, -1, -1, -1, -1, -1, -1, -1, -1, -1, -1, -1, -1, 0, -1, -1, 64|
-1, 52, -1, -1, -1, 71, -1, -1, -1, -1, -1, -1, -1, -1, -1, 48, -1, 97, -1, -1, -1, -1, 0, -1, -1|
-1, -1, -1, -1, -1, -1, 44, -1, -1, -1, -1, -1, -1, -1, -1, 22, -1, -1, -1, -1, -1, -1, -1, 0, -1|
-1, -1, -1, -1, -1, 96, -1, -1, -1, -1, -1, -1, -1, -1, -1, -1, -1, -1, 32, -1, -1, -1, -1, 75, 0|];
